7937
7693
6495
6186
4263
4720
9121
3615
571
8413
578
4612
7429
6976
1660
9316
5070
2226
2497
9587
9866
8271
2198
6349
5355
3078
7822
5738
9457
6502
6717
8928
6183
4712
3332
1550
3778
7438
6142
6938
5006
3376
6773
6614
9436
503
563
1943
8899
3911
2301
